Route #1: 1 76 133 74 91 20 86 87 90 16 11 8 6 4 42 3 95 37 36 100 98 96 38 93 28 26 24 60 31 57 55 104 53 51 49 1 
Route #2: 1 32 134 77 63 79 70 69 68 33 17 118 66 72 47 75 59 29 92 88 7 10 41 44 45 39 99 56 58 54 102 52 50 62 1 
Route #3: 1 1 61 30 27 25 21 73 71 46 19 84 89 13 15 14 12 9 5 43 40 94 97 35 103 34 1 
Route #4: 1 101 105 2 23 22 18 82 85 83 65 119 116 127 122 80 78 64 48 1 
Route #5: 1 67 110 111 125 124 126 128 129 113 132 1 
Route #6: 1 81 112 123 121 120 109 107 115 131 117 1 
Route #7: 1 130 114 106 108 1 

Cost 1886.22
Time 3.3611


 * Another infos *

 Iterations: 135 Time: 3.3611 sec - 0.0560 min - 0.0009 horas
0.0000 h 0.0560 min
Problem dimension: 135
